DIMACS_lns/graph-1000-332.col
p edge 1000 1852
e 1 651
e 1 262
e 1 852
e 2 809
e 2 186
e 2 984
e 2 712
e 3 225
e 3 158
e 3 507
e 3 837
e 3 863
e 3 657
e 4 40
e 4 804
e 4 676
e 5 86
e 5 485
e 5 6
e 5 378
e 5 294
e 5 252
e 6 686
e 6 284
e 6 396
e 6 653
e 7 215
e 7 197
e 7 56
e 7 533
e 7 879
e 8 799
e 8 391
e 8 27
e 9 602
e 9 16
e 9 854
e 9 900
e 9 913
e 9 108
e 10 483
e 10 839
e 10 466
e 10 276
e 10 745
e 10 856
e 12 799
e 12 111
e 12 133
e 12 306
e 12 990
e 12 34
e 12 516
e 15 253
e 15 130
e 15 526
e 15 568
e 16 934
e 16 60
e 16 749
e 17 755
e 17 882
e 17 626
e 18 918
e 18 422
e 18 534
e 18 994
e 18 942
e 18 473
e 18 899
e 19 704
e 19 222
e 19 223
e 19 363
e 19 459
e 19 795
e 20 231
e 20 707
e 20 300
e 21 968
e 21 927
e 21 295
e 21 852
e 24 284
e 24 561
e 24 322
e 26 199
e 26 643
e 26 369
e 26 726
e 27 436
e 27 335
e 27 985
e 27 154
e 27 827
e 27 652
e 28 561
e 28 616
e 28 242
e 28 172
e 30 185
e 30 510
e 30 464
e 31 929
e 31 341
e 31 809
e 32 571
e 32 412
e 32 900
e 33 259
e 33 870
e 33 261
e 33 947
e 33 772
e 33 762
e 33 975
e 34 447
e 34 626
e 34 267
e 35 501
e 35 282
e 35 306
e 36 122
e 36 736
e 36 114
e 37 88
e 37 225
e 37 334
e 37 577
e 37 379
e 37 839
e 38 796
e 38 561
e 38 560
e 38 728
e 39 98
e 39 740
e 39 599
e 39 736
e 40 365
e 40 135
e 41 578
e 41 797
e 41 715
e 41 59
e 42 73
e 42 252
e 42 323
e 42 88
e 43 773
e 43 834
e 43 280
e 43 681
e 44 587
e 44 887
e 44 958
e 46 84
e 46 449
e 46 509
e 46 72
e 47 545
e 47 233
e 47 707
e 47 449
e 47 70
e 47 415
e 47 624
e 47 588
e 48 746
e 48 494
e 48 686
e 48 240
e 50 258
e 50 52
e 50 969
e 50 833
e 50 587
e 50 571
e 51 875
e 51 567
e 51 283
e 51 782
e 51 98
e 52 74
e 52 413
e 52 573
e 52 754
e 52 965
e 52 160
e 52 522
e 52 584
e 52 728
e 52 685
e 54 527
e 54 918
e 54 108
e 54 128
e 54 502
e 54 385
e 56 780
e 56 333
e 56 720
e 56 86
e 56 591
e 56 704
e 56 692
e 56 660
e 57 791
e 57 486
e 57 293
e 57 320
e 59 171
e 59 940
e 59 707
e 60 796
e 60 704
e 60 545
e 60 629
e 60 74
e 61 682
e 61 229
e 61 660
e 62 447
e 62 596
e 62 703
e 63 417
e 63 713
e 63 428
e 63 621
e 63 709
e 63 914
e 65 484
e 65 626
e 65 321
e 65 868
e 65 950
e 65 762
e 65 888
e 65 886
e 65 625
e 66 901
e 66 219
e 66 776
e 66 105
e 66 91
e 66 373
e 67 215
e 67 145
e 67 168
e 67 681
e 67 613
e 67 436
e 67 383
e 68 154
e 68 343
e 68 640
e 68 378
e 68 245
e 68 402
e 69 984
e 69 951
e 69 211
e 69 877
e 69 764
e 69 92
e 69 900
e 69 347
e 70 737
e 70 865
e 70 200
e 71 660
e 71 989
e 71 292
e 71 951
e 72 670
e 72 238
e 72 799
e 72 158
e 72 717
e 72 185
e 72 427
e 73 266
e 73 956
e 73 654
e 74 643
e 75 931
e 75 229
e 75 534
e 75 754
e 75 812
e 76 704
e 76 899
e 76 905
e 76 527
e 76 201
e 76 634
e 76 837
e 77 857
e 77 164
e 77 84
e 79 921
e 79 940
e 79 603
e 79 872
e 79 421
e 79 516
e 79 292
e 82 833
e 82 593
e 82 629
e 83 332
e 83 136
e 83 217
e 83 215
e 83 569
e 83 364
e 83 622
e 84 934
e 84 593
e 84 911
e 84 239
e 84 672
e 84 964
e 84 998
e 84 299
e 85 751
e 85 547
e 85 427
e 85 641
e 85 179
e 86 680
e 86 899
e 86 177
e 86 624
e 87 661
e 87 654
e 87 842
e 87 215
e 88 647
e 88 867
e 88 171
e 88 512
e 89 798
e 89 854
e 89 892
e 89 140
e 90 257
e 90 609
e 90 216
e 90 818
e 91 334
e 91 385
e 91 433
e 92 926
e 92 213
e 92 763
e 92 972
e 92 974
e 92 406
e 93 940
e 93 237
e 93 672
e 93 384
e 93 383
e 93 658
e 93 832
e 94 603
e 94 285
e 94 343
e 95 669
e 95 705
e 95 249
e 95 372
e 95 500
e 95 589
e 98 789
e 98 359
e 98 687
e 98 136
e 98 252
e 99 134
e 99 502
e 99 181
e 99 334
e 100 841
e 100 937
e 100 420
e 101 142
e 101 813
e 101 931
e 101 616
e 101 368
e 101 721
e 102 436
e 102 442
e 102 242
e 102 609
e 102 984
e 103 676
e 103 376
e 103 611
e 103 196
e 103 988
e 104 786
e 104 963
e 104 528
e 105 923
e 105 181
e 105 634
e 107 901
e 107 501
e 107 640
e 107 254
e 108 257
e 108 219
e 108 989
e 108 685
e 109 776
e 109 545
e 109 226
e 109 331
e 109 485
e 109 862
e 109 222
e 110 630
e 110 621
e 110 547
e 111 868
e 111 626
e 111 730
e 111 442
e 112 343
e 112 325
e 112 191
e 112 589
e 113 595
e 113 871
e 113 364
e 114 612
e 114 990
e 115 322
e 115 531
e 115 640
e 115 825
e 116 603
e 116 142
e 116 706
e 117 835
e 117 328
e 117 857
e 117 349
e 117 933
e 117 630
e 119 202
e 119 596
e 119 917
e 119 887
e 120 300
e 120 913
e 120 144
e 120 799
e 120 566
e 120 590
e 120 501
e 120 723
e 122 197
e 122 306
e 122 725
e 123 533
e 123 427
e 123 175
e 123 327
e 124 430
e 124 236
e 124 128
e 124 699
e 124 836
e 126 406
e 126 569
e 126 295
e 126 546
e 126 622
e 128 994
e 128 423
e 128 491
e 128 338
e 128 328
e 129 230
e 129 501
e 129 595
e 129 749
e 130 667
e 130 415
e 130 568
e 130 931
e 131 373
e 131 282
e 131 803
e 131 703
e 131 208
e 131 836
e 131 205
e 133 939
e 133 777
e 133 552
e 133 687
e 133 237
e 134 988
e 134 330
e 134 284
e 134 836
e 134 281
e 134 532
e 134 770
e 134 442
e 134 276
e 134 626
e 134 559
e 135 685
e 135 337
e 135 494
e 135 692
e 135 265
e 135 821
e 136 157
e 136 437
e 136 591
e 139 590
e 139 501
e 139 405
e 140 877
e 140 717
e 142 636
e 144 746
e 144 980
e 145 792
e 145 975
e 146 850
e 146 368
e 146 666
e 146 253
e 147 714
e 147 943
e 147 239
e 147 561
e 148 270
e 148 582
e 148 997
e 148 204
e 148 595
e 149 661
e 149 512
e 149 720
e 149 557
e 149 295
e 150 594
e 150 370
e 150 291
e 151 359
e 151 250
e 151 285
e 154 788
e 154 434
e 157 493
e 157 685
e 157 193
e 157 903
e 157 528
e 158 707
e 158 987
e 160 416
e 160 882
e 160 256
e 160 414
e 161 485
e 161 773
e 161 635
e 164 865
e 164 705
e 164 277
e 164 384
e 165 468
e 165 729
e 165 517
e 165 365
e 165 249
e 165 649
e 166 754
e 166 909
e 166 671
e 167 804
e 167 433
e 167 660
e 167 369
e 167 780
e 168 409
e 168 287
e 169 724
e 169 625
e 169 366
e 169 956
e 171 755
e 172 565
e 172 532
e 172 334
e 174 500
e 174 767
e 174 199
e 174 677
e 175 982
e 175 521
e 175 814
e 175 783
e 175 288
e 175 951
e 177 504
e 177 498
e 177 705
e 177 319
e 177 825
e 179 863
e 179 561
e 179 660
e 180 683
e 180 661
e 180 866
e 180 985
e 180 394
e 180 579
e 181 883
e 181 186
e 182 223
e 182 835
e 182 807
e 184 813
e 184 280
e 184 305
e 184 606
e 185 985
e 186 665
e 187 618
e 187 206
e 187 794
e 187 379
e 190 254
e 190 459
e 190 270
e 190 321
e 191 293
e 191 607
e 193 628
e 193 678
e 193 194
e 193 250
e 194 744
e 194 487
e 194 288
e 196 607
e 196 461
e 197 910
e 197 873
e 197 288
e 199 293
e 199 714
e 200 622
e 200 832
e 200 737
e 200 731
e 201 683
e 201 933
e 201 826
e 201 243
e 201 378
e 201 817
e 202 896
e 202 937
e 202 491
e 203 634
e 203 237
e 203 224
e 203 312
e 203 459
e 203 370
e 204 786
e 204 965
e 205 890
e 205 359
e 205 343
e 206 569
e 206 236
e 206 577
e 206 441
e 206 840
e 206 856
e 207 235
e 207 378
e 207 920
e 207 988
e 208 217
e 208 348
e 208 866
e 209 479
e 209 448
e 209 413
e 210 549
e 210 704
e 210 560
e 210 900
e 210 995
e 211 245
e 211 578
e 211 796
e 211 414
e 212 797
e 212 710
e 212 651
e 212 293
e 212 443
e 213 910
e 213 831
e 213 556
e 213 725
e 213 606
e 215 788
e 215 229
e 215 826
e 215 343
e 216 286
e 216 681
e 216 547
e 216 220
e 217 829
e 217 921
e 218 856
e 218 513
e 218 577
e 218 937
e 218 259
e 219 507
e 219 319
e 220 923
e 220 486
e 220 265
e 222 341
e 222 406
e 222 935
e 222 829
e 223 387
e 223 792
e 223 267
e 223 927
e 224 578
e 224 608
e 224 252
e 224 671
e 224 777
e 224 502
e 225 727
e 226 531
e 226 327
e 228 337
e 228 444
e 228 867
e 228 828
e 228 638
e 228 976
e 229 780
e 229 894
e 229 882
e 229 416
e 229 251
e 229 281
e 229 351
e 230 293
e 230 872
e 230 729
e 231 599
e 231 615
e 231 923
e 231 841
e 231 566
e 232 390
e 232 418
e 232 538
e 233 582
e 233 350
e 233 960
e 233 493
e 235 257
e 235 633
e 235 396
e 236 608
e 236 286
e 236 850
e 236 692
e 237 506
e 237 458
e 237 555
e 237 760
e 237 350
e 238 562
e 238 659
e 238 422
e 238 632
e 238 530
e 238 930
e 238 781
e 239 783
e 239 860
e 240 402
e 240 439
e 240 839
e 242 667
e 242 491
e 242 483
e 243 283
e 243 549
e 244 740
e 244 720
e 244 789
e 245 390
e 245 923
e 246 632
e 246 936
e 246 416
e 248 615
e 248 783
e 248 649
e 249 549
e 250 735
e 250 494
e 250 763
e 251 927
e 251 385
e 251 278
e 252 677
e 252 887
e 252 340
e 252 582
e 253 842
e 253 989
e 253 562
e 253 969
e 253 276
e 253 552
e 254 383
e 254 595
e 255 383
e 255 459
e 255 725
e 255 533
e 255 740
e 255 594
e 256 378
e 256 727
e 256 900
e 256 987
e 256 790
e 256 315
e 256 417
e 258 370
e 258 387
e 258 330
e 258 946
e 258 1000
e 259 342
e 259 609
e 259 361
e 259 416
e 259 983
e 259 899
e 261 498
e 261 1000
e 261 922
e 261 300
e 262 512
e 262 348
e 263 546
e 263 899
e 263 643
e 265 395
e 265 804
e 266 989
e 266 419
e 267 813
e 267 476
e 267 483
e 268 679
e 268 660
e 268 858
e 268 372
e 268 512
e 268 422
e 268 624
e 268 484
e 270 404
e 272 721
e 272 614
e 272 379
e 272 886
e 272 791
e 274 851
e 274 888
e 274 416
e 274 439
e 276 441
e 276 763
e 277 307
e 277 866
e 277 544
e 278 402
e 278 795
e 278 361
e 278 967
e 278 492
e 278 324
e 279 511
e 279 976
e 279 825
e 280 979
e 281 939
e 281 678
e 282 331
e 282 795
e 282 417
e 282 769
e 282 949
e 282 681
e 283 433
e 283 954
e 284 875
e 284 560
e 284 616
e 284 963
e 285 471
e 285 487
e 285 692
e 286 561
e 286 483
e 286 376
e 286 968
e 286 641
e 286 595
e 287 407
e 287 872
e 287 364
e 287 384
e 290 762
e 290 759
e 290 815
e 290 307
e 290 385
e 290 851
e 290 545
e 291 819
e 291 441
e 292 651
e 292 335
e 292 687
e 292 327
e 292 440
e 293 735
e 293 883
e 293 466
e 294 494
e 294 497
e 295 369
e 295 651
e 299 368
e 299 583
e 299 454
e 299 388
e 300 531
e 300 667
e 300 590
e 300 975
e 303 724
e 303 811
e 303 363
e 303 758
e 303 649
e 303 937
e 303 933
e 304 828
e 304 360
e 304 538
e 305 674
e 305 507
e 306 382
e 306 542
e 306 321
e 306 388
e 306 898
e 307 493
e 307 484
e 307 430
e 307 529
e 307 857
e 307 487
e 310 751
e 310 423
e 310 464
e 310 628
e 312 840
e 312 530
e 313 672
e 313 916
e 313 654
e 313 649
e 315 511
e 315 382
e 315 673
e 316 723
e 316 539
e 316 990
e 318 786
e 318 494
e 318 579
e 318 557
e 318 618
e 319 381
e 319 527
e 320 491
e 320 658
e 321 854
e 321 892
e 322 340
e 322 380
e 322 928
e 322 501
e 323 425
e 323 617
e 324 942
e 324 826
e 324 883
e 324 468
e 325 672
e 325 521
e 326 329
e 326 852
e 326 375
e 326 955
e 326 687
e 327 955
e 328 553
e 328 980
e 328 434
e 328 470
e 329 905
e 329 770
e 329 461
e 330 994
e 330 791
e 330 747
e 331 834
e 331 531
e 331 539
e 331 607
e 332 776
e 332 606
e 332 905
e 332 909
e 332 414
e 333 858
e 333 347
e 334 699
e 334 812
e 334 383
e 335 607
e 337 938
e 337 602
e 338 843
e 338 556
e 338 735
e 338 618
e 338 746
e 339 922
e 339 345
e 339 387
e 339 794
e 339 906
e 339 595
e 340 979
e 341 658
e 341 441
e 341 458
e 342 753
e 342 949
e 343 536
e 343 599
e 343 509
e 343 876
e 343 823
e 343 901
e 343 369
e 345 725
e 345 901
e 345 839
e 345 359
e 347 947
e 347 870
e 348 429
e 348 980
e 348 714
e 348 791
e 348 458
e 349 867
e 349 786
e 349 896
e 349 419
e 350 727
e 350 543
e 351 765
e 351 360
e 351 912
e 354 678
e 354 426
e 354 373
e 359 412
e 359 900
e 359 753
e 360 383
e 360 627
e 361 848
e 361 373
e 361 613
e 362 454
e 362 728
e 362 510
e 362 825
e 362 567
e 363 524
e 363 967
e 364 826
e 364 567
e 364 647
e 364 923
e 364 745
e 365 391
e 365 692
e 365 739
e 366 767
e 366 901
e 367 951
e 367 591
e 367 827
e 367 787
e 368 705
e 368 512
e 369 940
e 370 388
e 370 844
e 370 916
e 372 983
e 372 829
e 372 501
e 374 896
e 374 560
e 374 390
e 375 459
e 375 428
e 375 501
e 375 911
e 376 677
e 376 862
e 377 647
e 377 584
e 377 654
e 377 396
e 377 998
e 378 594
e 378 705
e 378 749
e 379 984
e 380 408
e 380 954
e 380 783
e 381 936
e 381 471
e 382 871
e 383 607
e 383 548
e 384 529
e 384 506
e 384 394
e 384 871
e 384 443
e 384 733
e 385 816
e 385 543
e 385 744
e 387 939
e 387 683
e 387 584
e 388 596
e 388 990
e 388 523
e 389 949
e 389 746
e 389 855
e 389 895
e 389 804
e 390 617
e 390 676
e 390 609
e 390 772
e 391 769
e 391 625
e 391 539
e 394 999
e 394 956
e 394 948
e 394 557
e 394 744
e 394 831
e 394 729
e 394 657
e 395 935
e 395 943
e 395 786
e 395 842
e 396 565
e 397 577
e 397 787
e 397 701
e 399 683
e 399 522
e 399 828
e 401 468
e 401 952
e 401 831
e 402 995
e 402 616
e 402 832
e 402 493
e 404 498
e 404 476
e 404 898
e 405 759
e 405 606
e 405 815
e 406 819
e 406 939
e 407 783
e 407 654
e 407 454
e 408 669
e 408 768
e 409 910
e 409 640
e 409 638
e 412 974
e 412 687
e 413 850
e 413 593
e 414 840
e 414 930
e 414 608
e 415 818
e 415 646
e 415 777
e 416 467
e 417 850
e 417 670
e 417 516
e 418 988
e 418 539
e 419 561
e 419 744
e 419 604
e 419 546
e 420 658
e 420 725
e 420 482
e 421 764
e 421 627
e 421 920
e 421 887
e 421 577
e 423 812
e 425 622
e 425 917
e 426 860
e 426 633
e 426 920
e 427 896
e 427 728
e 427 671
e 428 434
e 429 879
e 429 902
e 429 682
e 429 529
e 430 760
e 433 839
e 433 621
e 433 821
e 434 454
e 436 980
e 436 588
e 436 604
e 437 721
e 437 513
e 439 470
e 440 589
e 440 967
e 440 775
e 440 790
e 440 795
e 440 894
e 441 455
e 441 665
e 441 840
e 441 692
e 442 792
e 442 767
e 443 989
e 443 790
e 443 596
e 444 700
e 444 924
e 445 498
e 445 739
e 445 646
e 445 506
e 445 700
e 445 762
e 445 486
e 447 813
e 447 654
e 448 977
e 448 736
e 449 686
e 449 777
e 451 555
e 451 956
e 451 686
e 454 758
e 454 791
e 454 606
e 454 898
e 454 717
e 454 744
e 455 606
e 455 873
e 455 528
e 456 777
e 456 997
e 456 753
e 458 526
e 458 740
e 459 787
e 459 634
e 459 828
e 461 924
e 461 688
e 461 901
e 461 487
e 464 965
e 464 755
e 464 807
e 466 751
e 466 989
e 466 553
e 466 883
e 467 568
e 467 824
e 468 987
e 470 654
e 470 724
e 470 969
e 471 701
e 473 843
e 473 577
e 475 653
e 475 895
e 475 815
e 476 676
e 476 788
e 476 875
e 478 736
e 478 935
e 478 789
e 479 660
e 479 803
e 479 526
e 479 921
e 482 674
e 482 837
e 483 549
e 483 672
e 484 682
e 484 827
e 484 954
e 485 814
e 486 739
e 486 835
e 487 573
e 490 558
e 490 773
e 490 853
e 491 634
e 491 982
e 492 545
e 492 940
e 492 613
e 493 893
e 493 672
e 493 739
e 493 548
e 494 763
e 494 943
e 494 544
e 497 586
e 497 705
e 497 605
e 498 733
e 498 621
e 500 817
e 500 862
e 500 997
e 501 700
e 501 955
e 504 681
e 504 527
e 504 538
e 506 579
e 506 636
e 506 777
e 506 873
e 507 750
e 509 781
e 509 967
e 510 832
e 511 667
e 511 860
e 511 731
e 512 513
e 513 892
e 516 956
e 516 858
e 516 562
e 517 947
e 517 972
e 517 837
e 517 531
e 517 938
e 517 704
e 517 992
e 521 974
e 521 950
e 521 940
e 522 959
e 522 573
e 523 776
e 523 767
e 523 692
e 524 632
e 524 628
e 526 715
e 527 873
e 527 539
e 527 903
e 527 636
e 527 736
e 528 904
e 528 631
e 528 882
e 528 559
e 529 673
e 530 995
e 530 672
e 532 938
e 532 548
e 533 712
e 533 871
e 534 683
e 534 768
e 534 633
e 536 979
e 536 992
e 538 542
e 538 879
e 538 848
e 538 583
e 539 890
e 542 692
e 542 726
e 543 586
e 543 943
e 544 558
e 544 973
e 546 723
e 547 617
e 548 677
e 548 836
e 549 765
e 549 585
e 552 699
e 553 597
e 553 667
e 553 710
e 555 745
e 555 937
e 556 935
e 557 860
e 557 776
e 557 906
e 557 707
e 558 626
e 558 787
e 559 857
e 559 657
e 560 872
e 560 713
e 561 726
e 561 781
e 561 799
e 562 721
e 562 760
e 562 964
e 565 852
e 565 759
e 566 980
e 567 635
e 567 626
e 567 717
e 568 809
e 568 922
e 571 867
e 573 618
e 577 622
e 578 855
e 578 714
e 578 744
e 579 803
e 579 817
e 582 750
e 583 596
e 585 589
e 585 733
e 586 956
e 587 686
e 587 819
e 588 735
e 588 948
e 589 627
e 589 826
e 589 828
e 589 681
e 591 790
e 591 635
e 591 631
e 593 821
e 594 870
e 594 596
e 595 987
e 595 692
e 595 603
e 596 946
e 596 602
e 597 818
e 597 725
e 597 811
e 599 768
e 599 776
e 599 940
e 599 665
e 600 937
e 600 791
e 600 825
e 600 605
e 600 860
e 603 943
e 604 802
e 604 631
e 605 887
e 606 636
e 608 934
e 608 817
e 608 967
e 608 815
e 608 936
e 608 1000
e 609 992
e 611 855
e 611 824
e 612 734
e 612 652
e 612 893
e 613 803
e 614 634
e 614 969
e 614 823
e 614 974
e 615 793
e 616 767
e 616 681
e 617 762
e 617 936
e 618 920
e 622 824
e 622 894
e 622 829
e 624 801
e 626 956
e 626 688
e 626 950
e 626 726
e 626 636
e 626 894
e 627 946
e 627 883
e 627 991
e 627 829
e 628 761
e 629 669
e 629 801
e 629 837
e 630 952
e 630 992
e 630 889
e 631 739
e 631 745
e 632 924
e 632 715
e 633 933
e 633 653
e 633 712
e 635 706
e 635 793
e 635 933
e 636 997
e 636 761
e 638 672
e 641 924
e 641 740
e 642 728
e 642 942
e 642 677
e 643 796
e 643 870
e 646 709
e 647 982
e 652 659
e 654 985
e 654 902
e 654 828
e 658 666
e 659 781
e 660 843
e 660 984
e 660 851
e 660 819
e 661 974
e 661 777
e 665 884
e 665 924
e 666 768
e 666 964
e 667 753
e 669 982
e 670 886
e 670 903
e 671 773
e 671 717
e 671 916
e 672 934
e 673 938
e 674 933
e 674 949
e 676 863
e 679 700
e 679 842
e 680 900
e 680 762
e 681 930
e 682 798
e 682 857
e 682 745
e 683 976
e 685 714
e 685 782
e 688 960
e 699 973
e 700 928
e 701 991
e 701 823
e 703 909
e 704 832
e 705 937
e 706 920
e 706 791
e 707 873
e 709 949
e 709 903
e 710 767
e 713 750
e 714 801
e 715 762
e 720 770
e 723 916
e 724 899
e 725 760
e 725 776
e 725 929
e 726 761
e 726 814
e 729 975
e 730 930
e 730 959
e 730 807
e 730 963
e 731 894
e 733 999
e 733 948
e 733 984
e 734 819
e 734 862
e 735 819
e 737 827
e 737 807
e 739 902
e 739 867
e 745 775
e 746 888
e 747 789
e 747 969
e 749 838
e 750 977
e 750 894
e 755 895
e 758 796
e 758 926
e 758 767
e 759 998
e 760 906
e 761 920
e 762 958
e 764 875
e 765 936
e 767 910
e 767 836
e 768 825
e 768 958
e 769 940
e 769 965
e 772 910
e 775 939
e 775 837
e 776 782
e 776 886
e 777 828
e 780 833
e 780 789
e 782 922
e 783 912
e 786 822
e 787 855
e 788 848
e 788 926
e 789 803
e 789 807
e 790 999
e 791 811
e 792 934
e 793 904
e 794 807
e 795 870
e 796 968
e 797 979
e 797 811
e 798 931
e 798 884
e 801 935
e 802 828
e 802 848
e 802 884
e 803 896
e 804 816
e 807 949
e 809 974
e 813 817
e 816 933
e 818 821
e 819 991
e 819 954
e 822 848
e 822 910
e 824 951
e 825 904
e 829 950
e 832 972
e 833 939
e 834 959
e 834 1000
e 834 987
e 834 877
e 835 975
e 835 929
e 836 968
e 836 872
e 838 839
e 838 994
e 840 956
e 841 948
e 844 850
e 844 983
e 850 871
e 850 984
e 853 868
e 853 933
e 865 987
e 865 974
e 870 922
e 870 952
e 871 906
e 873 889
e 873 958
e 875 889
e 875 998
e 876 921
e 876 914
e 884 969
e 887 905
e 887 929
e 888 975
e 890 955
e 890 994
e 893 926
e 898 934
e 901 911
e 903 1000
e 905 906
e 905 934
e 912 940
e 913 917
e 914 992
e 917 995
e 918 928
e 920 973
e 921 987
e 923 955
e 931 934
e 933 951
e 934 984
e 935 949
e 935 998
e 946 976
e 954 960
e 977 992
e 983 992
