txt_Ins/graph-1000-332.txt
n 1000
e 0 650
e 0 261
e 0 851
e 1 808
e 1 185
e 1 983
e 1 711
e 2 224
e 2 157
e 2 506
e 2 836
e 2 862
e 2 656
e 3 39
e 3 803
e 3 675
e 4 85
e 4 484
e 4 5
e 4 377
e 4 293
e 4 251
e 5 685
e 5 283
e 5 395
e 5 652
e 6 214
e 6 196
e 6 55
e 6 532
e 6 878
e 7 798
e 7 390
e 7 26
e 8 601
e 8 15
e 8 853
e 8 899
e 8 912
e 8 107
e 9 482
e 9 838
e 9 465
e 9 275
e 9 744
e 9 855
e 11 798
e 11 110
e 11 132
e 11 305
e 11 989
e 11 33
e 11 515
e 14 252
e 14 129
e 14 525
e 14 567
e 15 933
e 15 59
e 15 748
e 16 754
e 16 881
e 16 625
e 17 917
e 17 421
e 17 533
e 17 993
e 17 941
e 17 472
e 17 898
e 18 703
e 18 221
e 18 222
e 18 362
e 18 458
e 18 794
e 19 230
e 19 706
e 19 299
e 20 967
e 20 926
e 20 294
e 20 851
e 23 283
e 23 560
e 23 321
e 25 198
e 25 642
e 25 368
e 25 725
e 26 435
e 26 334
e 26 984
e 26 153
e 26 826
e 26 651
e 27 560
e 27 615
e 27 241
e 27 171
e 29 184
e 29 509
e 29 463
e 30 928
e 30 340
e 30 808
e 31 570
e 31 411
e 31 899
e 32 258
e 32 869
e 32 260
e 32 946
e 32 771
e 32 761
e 32 974
e 33 446
e 33 625
e 33 266
e 34 500
e 34 281
e 34 305
e 35 121
e 35 735
e 35 113
e 36 87
e 36 224
e 36 333
e 36 576
e 36 378
e 36 838
e 37 795
e 37 560
e 37 559
e 37 727
e 38 97
e 38 739
e 38 598
e 38 735
e 39 364
e 39 134
e 40 577
e 40 796
e 40 714
e 40 58
e 41 72
e 41 251
e 41 322
e 41 87
e 42 772
e 42 833
e 42 279
e 42 680
e 43 586
e 43 886
e 43 957
e 45 83
e 45 448
e 45 508
e 45 71
e 46 544
e 46 232
e 46 706
e 46 448
e 46 69
e 46 414
e 46 623
e 46 587
e 47 745
e 47 493
e 47 685
e 47 239
e 49 257
e 49 51
e 49 968
e 49 832
e 49 586
e 49 570
e 50 874
e 50 566
e 50 282
e 50 781
e 50 97
e 51 73
e 51 412
e 51 572
e 51 753
e 51 964
e 51 159
e 51 521
e 51 583
e 51 727
e 51 684
e 53 526
e 53 917
e 53 107
e 53 127
e 53 501
e 53 384
e 55 779
e 55 332
e 55 719
e 55 85
e 55 590
e 55 703
e 55 691
e 55 659
e 56 790
e 56 485
e 56 292
e 56 319
e 58 170
e 58 939
e 58 706
e 59 795
e 59 703
e 59 544
e 59 628
e 59 73
e 60 681
e 60 228
e 60 659
e 61 446
e 61 595
e 61 702
e 62 416
e 62 712
e 62 427
e 62 620
e 62 708
e 62 913
e 64 483
e 64 625
e 64 320
e 64 867
e 64 949
e 64 761
e 64 887
e 64 885
e 64 624
e 65 900
e 65 218
e 65 775
e 65 104
e 65 90
e 65 372
e 66 214
e 66 144
e 66 167
e 66 680
e 66 612
e 66 435
e 66 382
e 67 153
e 67 342
e 67 639
e 67 377
e 67 244
e 67 401
e 68 983
e 68 950
e 68 210
e 68 876
e 68 763
e 68 91
e 68 899
e 68 346
e 69 736
e 69 864
e 69 199
e 70 659
e 70 988
e 70 291
e 70 950
e 71 669
e 71 237
e 71 798
e 71 157
e 71 716
e 71 184
e 71 426
e 72 265
e 72 955
e 72 653
e 73 642
e 74 930
e 74 228
e 74 533
e 74 753
e 74 811
e 75 703
e 75 898
e 75 904
e 75 526
e 75 200
e 75 633
e 75 836
e 76 856
e 76 163
e 76 83
e 78 920
e 78 939
e 78 602
e 78 871
e 78 420
e 78 515
e 78 291
e 81 832
e 81 592
e 81 628
e 82 331
e 82 135
e 82 216
e 82 214
e 82 568
e 82 363
e 82 621
e 83 933
e 83 592
e 83 910
e 83 238
e 83 671
e 83 963
e 83 997
e 83 298
e 84 750
e 84 546
e 84 426
e 84 640
e 84 178
e 85 679
e 85 898
e 85 176
e 85 623
e 86 660
e 86 653
e 86 841
e 86 214
e 87 646
e 87 866
e 87 170
e 87 511
e 88 797
e 88 853
e 88 891
e 88 139
e 89 256
e 89 608
e 89 215
e 89 817
e 90 333
e 90 384
e 90 432
e 91 925
e 91 212
e 91 762
e 91 971
e 91 973
e 91 405
e 92 939
e 92 236
e 92 671
e 92 383
e 92 382
e 92 657
e 92 831
e 93 602
e 93 284
e 93 342
e 94 668
e 94 704
e 94 248
e 94 371
e 94 499
e 94 588
e 97 788
e 97 358
e 97 686
e 97 135
e 97 251
e 98 133
e 98 501
e 98 180
e 98 333
e 99 840
e 99 936
e 99 419
e 100 141
e 100 812
e 100 930
e 100 615
e 100 367
e 100 720
e 101 435
e 101 441
e 101 241
e 101 608
e 101 983
e 102 675
e 102 375
e 102 610
e 102 195
e 102 987
e 103 785
e 103 962
e 103 527
e 104 922
e 104 180
e 104 633
e 106 900
e 106 500
e 106 639
e 106 253
e 107 256
e 107 218
e 107 988
e 107 684
e 108 775
e 108 544
e 108 225
e 108 330
e 108 484
e 108 861
e 108 221
e 109 629
e 109 620
e 109 546
e 110 867
e 110 625
e 110 729
e 110 441
e 111 342
e 111 324
e 111 190
e 111 588
e 112 594
e 112 870
e 112 363
e 113 611
e 113 989
e 114 321
e 114 530
e 114 639
e 114 824
e 115 602
e 115 141
e 115 705
e 116 834
e 116 327
e 116 856
e 116 348
e 116 932
e 116 629
e 118 201
e 118 595
e 118 916
e 118 886
e 119 299
e 119 912
e 119 143
e 119 798
e 119 565
e 119 589
e 119 500
e 119 722
e 121 196
e 121 305
e 121 724
e 122 532
e 122 426
e 122 174
e 122 326
e 123 429
e 123 235
e 123 127
e 123 698
e 123 835
e 125 405
e 125 568
e 125 294
e 125 545
e 125 621
e 127 993
e 127 422
e 127 490
e 127 337
e 127 327
e 128 229
e 128 500
e 128 594
e 128 748
e 129 666
e 129 414
e 129 567
e 129 930
e 130 372
e 130 281
e 130 802
e 130 702
e 130 207
e 130 835
e 130 204
e 132 938
e 132 776
e 132 551
e 132 686
e 132 236
e 133 987
e 133 329
e 133 283
e 133 835
e 133 280
e 133 531
e 133 769
e 133 441
e 133 275
e 133 625
e 133 558
e 134 684
e 134 336
e 134 493
e 134 691
e 134 264
e 134 820
e 135 156
e 135 436
e 135 590
e 138 589
e 138 500
e 138 404
e 139 876
e 139 716
e 141 635
e 143 745
e 143 979
e 144 791
e 144 974
e 145 849
e 145 367
e 145 665
e 145 252
e 146 713
e 146 942
e 146 238
e 146 560
e 147 269
e 147 581
e 147 996
e 147 203
e 147 594
e 148 660
e 148 511
e 148 719
e 148 556
e 148 294
e 149 593
e 149 369
e 149 290
e 150 358
e 150 249
e 150 284
e 153 787
e 153 433
e 156 492
e 156 684
e 156 192
e 156 902
e 156 527
e 157 706
e 157 986
e 159 415
e 159 881
e 159 255
e 159 413
e 160 484
e 160 772
e 160 634
e 163 864
e 163 704
e 163 276
e 163 383
e 164 467
e 164 728
e 164 516
e 164 364
e 164 248
e 164 648
e 165 753
e 165 908
e 165 670
e 166 803
e 166 432
e 166 659
e 166 368
e 166 779
e 167 408
e 167 286
e 168 723
e 168 624
e 168 365
e 168 955
e 170 754
e 171 564
e 171 531
e 171 333
e 173 499
e 173 766
e 173 198
e 173 676
e 174 981
e 174 520
e 174 813
e 174 782
e 174 287
e 174 950
e 176 503
e 176 497
e 176 704
e 176 318
e 176 824
e 178 862
e 178 560
e 178 659
e 179 682
e 179 660
e 179 865
e 179 984
e 179 393
e 179 578
e 180 882
e 180 185
e 181 222
e 181 834
e 181 806
e 183 812
e 183 279
e 183 304
e 183 605
e 184 984
e 185 664
e 186 617
e 186 205
e 186 793
e 186 378
e 189 253
e 189 458
e 189 269
e 189 320
e 190 292
e 190 606
e 192 627
e 192 677
e 192 193
e 192 249
e 193 743
e 193 486
e 193 287
e 195 606
e 195 460
e 196 909
e 196 872
e 196 287
e 198 292
e 198 713
e 199 621
e 199 831
e 199 736
e 199 730
e 200 682
e 200 932
e 200 825
e 200 242
e 200 377
e 200 816
e 201 895
e 201 936
e 201 490
e 202 633
e 202 236
e 202 223
e 202 311
e 202 458
e 202 369
e 203 785
e 203 964
e 204 889
e 204 358
e 204 342
e 205 568
e 205 235
e 205 576
e 205 440
e 205 839
e 205 855
e 206 234
e 206 377
e 206 919
e 206 987
e 207 216
e 207 347
e 207 865
e 208 478
e 208 447
e 208 412
e 209 548
e 209 703
e 209 559
e 209 899
e 209 994
e 210 244
e 210 577
e 210 795
e 210 413
e 211 796
e 211 709
e 211 650
e 211 292
e 211 442
e 212 909
e 212 830
e 212 555
e 212 724
e 212 605
e 214 787
e 214 228
e 214 825
e 214 342
e 215 285
e 215 680
e 215 546
e 215 219
e 216 828
e 216 920
e 217 855
e 217 512
e 217 576
e 217 936
e 217 258
e 218 506
e 218 318
e 219 922
e 219 485
e 219 264
e 221 340
e 221 405
e 221 934
e 221 828
e 222 386
e 222 791
e 222 266
e 222 926
e 223 577
e 223 607
e 223 251
e 223 670
e 223 776
e 223 501
e 224 726
e 225 530
e 225 326
e 227 336
e 227 443
e 227 866
e 227 827
e 227 637
e 227 975
e 228 779
e 228 893
e 228 881
e 228 415
e 228 250
e 228 280
e 228 350
e 229 292
e 229 871
e 229 728
e 230 598
e 230 614
e 230 922
e 230 840
e 230 565
e 231 389
e 231 417
e 231 537
e 232 581
e 232 349
e 232 959
e 232 492
e 234 256
e 234 632
e 234 395
e 235 607
e 235 285
e 235 849
e 235 691
e 236 505
e 236 457
e 236 554
e 236 759
e 236 349
e 237 561
e 237 658
e 237 421
e 237 631
e 237 529
e 237 929
e 237 780
e 238 782
e 238 859
e 239 401
e 239 438
e 239 838
e 241 666
e 241 490
e 241 482
e 242 282
e 242 548
e 243 739
e 243 719
e 243 788
e 244 389
e 244 922
e 245 631
e 245 935
e 245 415
e 247 614
e 247 782
e 247 648
e 248 548
e 249 734
e 249 493
e 249 762
e 250 926
e 250 384
e 250 277
e 251 676
e 251 886
e 251 339
e 251 581
e 252 841
e 252 988
e 252 561
e 252 968
e 252 275
e 252 551
e 253 382
e 253 594
e 254 382
e 254 458
e 254 724
e 254 532
e 254 739
e 254 593
e 255 377
e 255 726
e 255 899
e 255 986
e 255 789
e 255 314
e 255 416
e 257 369
e 257 386
e 257 329
e 257 945
e 257 999
e 258 341
e 258 608
e 258 360
e 258 415
e 258 982
e 258 898
e 260 497
e 260 999
e 260 921
e 260 299
e 261 511
e 261 347
e 262 545
e 262 898
e 262 642
e 264 394
e 264 803
e 265 988
e 265 418
e 266 812
e 266 475
e 266 482
e 267 678
e 267 659
e 267 857
e 267 371
e 267 511
e 267 421
e 267 623
e 267 483
e 269 403
e 271 720
e 271 613
e 271 378
e 271 885
e 271 790
e 273 850
e 273 887
e 273 415
e 273 438
e 275 440
e 275 762
e 276 306
e 276 865
e 276 543
e 277 401
e 277 794
e 277 360
e 277 966
e 277 491
e 277 323
e 278 510
e 278 975
e 278 824
e 279 978
e 280 938
e 280 677
e 281 330
e 281 794
e 281 416
e 281 768
e 281 948
e 281 680
e 282 432
e 282 953
e 283 874
e 283 559
e 283 615
e 283 962
e 284 470
e 284 486
e 284 691
e 285 560
e 285 482
e 285 375
e 285 967
e 285 640
e 285 594
e 286 406
e 286 871
e 286 363
e 286 383
e 289 761
e 289 758
e 289 814
e 289 306
e 289 384
e 289 850
e 289 544
e 290 818
e 290 440
e 291 650
e 291 334
e 291 686
e 291 326
e 291 439
e 292 734
e 292 882
e 292 465
e 293 493
e 293 496
e 294 368
e 294 650
e 298 367
e 298 582
e 298 453
e 298 387
e 299 530
e 299 666
e 299 589
e 299 974
e 302 723
e 302 810
e 302 362
e 302 757
e 302 648
e 302 936
e 302 932
e 303 827
e 303 359
e 303 537
e 304 673
e 304 506
e 305 381
e 305 541
e 305 320
e 305 387
e 305 897
e 306 492
e 306 483
e 306 429
e 306 528
e 306 856
e 306 486
e 309 750
e 309 422
e 309 463
e 309 627
e 311 839
e 311 529
e 312 671
e 312 915
e 312 653
e 312 648
e 314 510
e 314 381
e 314 672
e 315 722
e 315 538
e 315 989
e 317 785
e 317 493
e 317 578
e 317 556
e 317 617
e 318 380
e 318 526
e 319 490
e 319 657
e 320 853
e 320 891
e 321 339
e 321 379
e 321 927
e 321 500
e 322 424
e 322 616
e 323 941
e 323 825
e 323 882
e 323 467
e 324 671
e 324 520
e 325 328
e 325 851
e 325 374
e 325 954
e 325 686
e 326 954
e 327 552
e 327 979
e 327 433
e 327 469
e 328 904
e 328 769
e 328 460
e 329 993
e 329 790
e 329 746
e 330 833
e 330 530
e 330 538
e 330 606
e 331 775
e 331 605
e 331 904
e 331 908
e 331 413
e 332 857
e 332 346
e 333 698
e 333 811
e 333 382
e 334 606
e 336 937
e 336 601
e 337 842
e 337 555
e 337 734
e 337 617
e 337 745
e 338 921
e 338 344
e 338 386
e 338 793
e 338 905
e 338 594
e 339 978
e 340 657
e 340 440
e 340 457
e 341 752
e 341 948
e 342 535
e 342 598
e 342 508
e 342 875
e 342 822
e 342 900
e 342 368
e 344 724
e 344 900
e 344 838
e 344 358
e 346 946
e 346 869
e 347 428
e 347 979
e 347 713
e 347 790
e 347 457
e 348 866
e 348 785
e 348 895
e 348 418
e 349 726
e 349 542
e 350 764
e 350 359
e 350 911
e 353 677
e 353 425
e 353 372
e 358 411
e 358 899
e 358 752
e 359 382
e 359 626
e 360 847
e 360 372
e 360 612
e 361 453
e 361 727
e 361 509
e 361 824
e 361 566
e 362 523
e 362 966
e 363 825
e 363 566
e 363 646
e 363 922
e 363 744
e 364 390
e 364 691
e 364 738
e 365 766
e 365 900
e 366 950
e 366 590
e 366 826
e 366 786
e 367 704
e 367 511
e 368 939
e 369 387
e 369 843
e 369 915
e 371 982
e 371 828
e 371 500
e 373 895
e 373 559
e 373 389
e 374 458
e 374 427
e 374 500
e 374 910
e 375 676
e 375 861
e 376 646
e 376 583
e 376 653
e 376 395
e 376 997
e 377 593
e 377 704
e 377 748
e 378 983
e 379 407
e 379 953
e 379 782
e 380 935
e 380 470
e 381 870
e 382 606
e 382 547
e 383 528
e 383 505
e 383 393
e 383 870
e 383 442
e 383 732
e 384 815
e 384 542
e 384 743
e 386 938
e 386 682
e 386 583
e 387 595
e 387 989
e 387 522
e 388 948
e 388 745
e 388 854
e 388 894
e 388 803
e 389 616
e 389 675
e 389 608
e 389 771
e 390 768
e 390 624
e 390 538
e 393 998
e 393 955
e 393 947
e 393 556
e 393 743
e 393 830
e 393 728
e 393 656
e 394 934
e 394 942
e 394 785
e 394 841
e 395 564
e 396 576
e 396 786
e 396 700
e 398 682
e 398 521
e 398 827
e 400 467
e 400 951
e 400 830
e 401 994
e 401 615
e 401 831
e 401 492
e 403 497
e 403 475
e 403 897
e 404 758
e 404 605
e 404 814
e 405 818
e 405 938
e 406 782
e 406 653
e 406 453
e 407 668
e 407 767
e 408 909
e 408 639
e 408 637
e 411 973
e 411 686
e 412 849
e 412 592
e 413 839
e 413 929
e 413 607
e 414 817
e 414 645
e 414 776
e 415 466
e 416 849
e 416 669
e 416 515
e 417 987
e 417 538
e 418 560
e 418 743
e 418 603
e 418 545
e 419 657
e 419 724
e 419 481
e 420 763
e 420 626
e 420 919
e 420 886
e 420 576
e 422 811
e 424 621
e 424 916
e 425 859
e 425 632
e 425 919
e 426 895
e 426 727
e 426 670
e 427 433
e 428 878
e 428 901
e 428 681
e 428 528
e 429 759
e 432 838
e 432 620
e 432 820
e 433 453
e 435 979
e 435 587
e 435 603
e 436 720
e 436 512
e 438 469
e 439 588
e 439 966
e 439 774
e 439 789
e 439 794
e 439 893
e 440 454
e 440 664
e 440 839
e 440 691
e 441 791
e 441 766
e 442 988
e 442 789
e 442 595
e 443 699
e 443 923
e 444 497
e 444 738
e 444 645
e 444 505
e 444 699
e 444 761
e 444 485
e 446 812
e 446 653
e 447 976
e 447 735
e 448 685
e 448 776
e 450 554
e 450 955
e 450 685
e 453 757
e 453 790
e 453 605
e 453 897
e 453 716
e 453 743
e 454 605
e 454 872
e 454 527
e 455 776
e 455 996
e 455 752
e 457 525
e 457 739
e 458 786
e 458 633
e 458 827
e 460 923
e 460 687
e 460 900
e 460 486
e 463 964
e 463 754
e 463 806
e 465 750
e 465 988
e 465 552
e 465 882
e 466 567
e 466 823
e 467 986
e 469 653
e 469 723
e 469 968
e 470 700
e 472 842
e 472 576
e 474 652
e 474 894
e 474 814
e 475 675
e 475 787
e 475 874
e 477 735
e 477 934
e 477 788
e 478 659
e 478 802
e 478 525
e 478 920
e 481 673
e 481 836
e 482 548
e 482 671
e 483 681
e 483 826
e 483 953
e 484 813
e 485 738
e 485 834
e 486 572
e 489 557
e 489 772
e 489 852
e 490 633
e 490 981
e 491 544
e 491 939
e 491 612
e 492 892
e 492 671
e 492 738
e 492 547
e 493 762
e 493 942
e 493 543
e 496 585
e 496 704
e 496 604
e 497 732
e 497 620
e 499 816
e 499 861
e 499 996
e 500 699
e 500 954
e 503 680
e 503 526
e 503 537
e 505 578
e 505 635
e 505 776
e 505 872
e 506 749
e 508 780
e 508 966
e 509 831
e 510 666
e 510 859
e 510 730
e 511 512
e 512 891
e 515 955
e 515 857
e 515 561
e 516 946
e 516 971
e 516 836
e 516 530
e 516 937
e 516 703
e 516 991
e 520 973
e 520 949
e 520 939
e 521 958
e 521 572
e 522 775
e 522 766
e 522 691
e 523 631
e 523 627
e 525 714
e 526 872
e 526 538
e 526 902
e 526 635
e 526 735
e 527 903
e 527 630
e 527 881
e 527 558
e 528 672
e 529 994
e 529 671
e 531 937
e 531 547
e 532 711
e 532 870
e 533 682
e 533 767
e 533 632
e 535 978
e 535 991
e 537 541
e 537 878
e 537 847
e 537 582
e 538 889
e 541 691
e 541 725
e 542 585
e 542 942
e 543 557
e 543 972
e 545 722
e 546 616
e 547 676
e 547 835
e 548 764
e 548 584
e 551 698
e 552 596
e 552 666
e 552 709
e 554 744
e 554 936
e 555 934
e 556 859
e 556 775
e 556 905
e 556 706
e 557 625
e 557 786
e 558 856
e 558 656
e 559 871
e 559 712
e 560 725
e 560 780
e 560 798
e 561 720
e 561 759
e 561 963
e 564 851
e 564 758
e 565 979
e 566 634
e 566 625
e 566 716
e 567 808
e 567 921
e 570 866
e 572 617
e 576 621
e 577 854
e 577 713
e 577 743
e 578 802
e 578 816
e 581 749
e 582 595
e 584 588
e 584 732
e 585 955
e 586 685
e 586 818
e 587 734
e 587 947
e 588 626
e 588 825
e 588 827
e 588 680
e 590 789
e 590 634
e 590 630
e 592 820
e 593 869
e 593 595
e 594 986
e 594 691
e 594 602
e 595 945
e 595 601
e 596 817
e 596 724
e 596 810
e 598 767
e 598 775
e 598 939
e 598 664
e 599 936
e 599 790
e 599 824
e 599 604
e 599 859
e 602 942
e 603 801
e 603 630
e 604 886
e 605 635
e 607 933
e 607 816
e 607 966
e 607 814
e 607 935
e 607 999
e 608 991
e 610 854
e 610 823
e 611 733
e 611 651
e 611 892
e 612 802
e 613 633
e 613 968
e 613 822
e 613 973
e 614 792
e 615 766
e 615 680
e 616 761
e 616 935
e 617 919
e 621 823
e 621 893
e 621 828
e 623 800
e 625 955
e 625 687
e 625 949
e 625 725
e 625 635
e 625 893
e 626 945
e 626 882
e 626 990
e 626 828
e 627 760
e 628 668
e 628 800
e 628 836
e 629 951
e 629 991
e 629 888
e 630 738
e 630 744
e 631 923
e 631 714
e 632 932
e 632 652
e 632 711
e 634 705
e 634 792
e 634 932
e 635 996
e 635 760
e 637 671
e 640 923
e 640 739
e 641 727
e 641 941
e 641 676
e 642 795
e 642 869
e 645 708
e 646 981
e 651 658
e 653 984
e 653 901
e 653 827
e 657 665
e 658 780
e 659 842
e 659 983
e 659 850
e 659 818
e 660 973
e 660 776
e 664 883
e 664 923
e 665 767
e 665 963
e 666 752
e 668 981
e 669 885
e 669 902
e 670 772
e 670 716
e 670 915
e 671 933
e 672 937
e 673 932
e 673 948
e 675 862
e 678 699
e 678 841
e 679 899
e 679 761
e 680 929
e 681 797
e 681 856
e 681 744
e 682 975
e 684 713
e 684 781
e 687 959
e 698 972
e 699 927
e 700 990
e 700 822
e 702 908
e 703 831
e 704 936
e 705 919
e 705 790
e 706 872
e 708 948
e 708 902
e 709 766
e 712 749
e 713 800
e 714 761
e 719 769
e 722 915
e 723 898
e 724 759
e 724 775
e 724 928
e 725 760
e 725 813
e 728 974
e 729 929
e 729 958
e 729 806
e 729 962
e 730 893
e 732 998
e 732 947
e 732 983
e 733 818
e 733 861
e 734 818
e 736 826
e 736 806
e 738 901
e 738 866
e 744 774
e 745 887
e 746 788
e 746 968
e 748 837
e 749 976
e 749 893
e 754 894
e 757 795
e 757 925
e 757 766
e 758 997
e 759 905
e 760 919
e 761 957
e 763 874
e 764 935
e 766 909
e 766 835
e 767 824
e 767 957
e 768 939
e 768 964
e 771 909
e 774 938
e 774 836
e 775 781
e 775 885
e 776 827
e 779 832
e 779 788
e 781 921
e 782 911
e 785 821
e 786 854
e 787 847
e 787 925
e 788 802
e 788 806
e 789 998
e 790 810
e 791 933
e 792 903
e 793 806
e 794 869
e 795 967
e 796 978
e 796 810
e 797 930
e 797 883
e 800 934
e 801 827
e 801 847
e 801 883
e 802 895
e 803 815
e 806 948
e 808 973
e 812 816
e 815 932
e 817 820
e 818 990
e 818 953
e 821 847
e 821 909
e 823 950
e 824 903
e 828 949
e 831 971
e 832 938
e 833 958
e 833 999
e 833 986
e 833 876
e 834 974
e 834 928
e 835 967
e 835 871
e 837 838
e 837 993
e 839 955
e 840 947
e 843 849
e 843 982
e 849 870
e 849 983
e 852 867
e 852 932
e 864 986
e 864 973
e 869 921
e 869 951
e 870 905
e 872 888
e 872 957
e 874 888
e 874 997
e 875 920
e 875 913
e 883 968
e 886 904
e 886 928
e 887 974
e 889 954
e 889 993
e 892 925
e 897 933
e 900 910
e 902 999
e 904 905
e 904 933
e 911 939
e 912 916
e 913 991
e 916 994
e 917 927
e 919 972
e 920 986
e 922 954
e 930 933
e 932 950
e 933 983
e 934 948
e 934 997
e 945 975
e 953 959
e 976 991
e 982 991
